# 96382
param k := 6;
param n := 60;
param s := 1;
set E :=  (0,30) (0,50) (1,29) (1,58) (2,11) (2,28) (3,15) (4,21) (4,28) (4,44) (5,51) (6,11) (6,34) (6,43) (7,14) (7,32) (8,55) (9,39) (9,54) (9,59) (10,21) (11,17) (12,15) (13,36) (13,38) (14,26) (15,35) (16,19) (16,45) (16,57) (18,21) (18,37) (18,45) (20,28) (20,36) (20,47) (20,58) (21,26) (21,33) (22,36) (23,33) (23,59) (24,27) (24,33) (25,58) (27,35) (30,40) (31,47) (33,52) (34,40) (38,42) (38,55) (39,53) (40,47) (41,48) (43,46) (43,48) (48,56) (49,53) (51,59);